db/inputs/19445225971121317396222553002125542750.smt2
(set-logic QF_FP)
(declare-const x0 (_ FloatingPoint 11 53))
(declare-const x1 (_ FloatingPoint 11 53))
(declare-const x2 (_ FloatingPoint 11 53))
(declare-const x3 (_ FloatingPoint 11 53))
(declare-const x4 (_ FloatingPoint 11 53))
(declare-const x5 (_ FloatingPoint 11 53))
(declare-const x6 (_ FloatingPoint 11 53))
(declare-const x7 (_ FloatingPoint 11 53))
(declare-const x8 (_ FloatingPoint 11 53))
(declare-const x9 (_ FloatingPoint 11 53))
(assert (fp.leq (fp.add RNE x6 x0) (fp.div RNE x3 x3)))
(assert (fp.gt (fp.add RNE x5 x9) (fp.sub RNE x0 x1)))
(assert (fp.eq (fp.mul RNE x4 x7) (fp.mul RNE x3 x6)))
(assert (fp.leq (fp.add RNE x4 x3) (fp.mul RNE x9 x4)))
(assert (fp.geq (fp.add RNE x3 x5) (fp.mul RNE x3 x0)))
(check-sat)
