db/data/19445225971121317396222553002125542750.z3.out
sat
-------------------
1359.207818703
